maxSzin = 4;
orszagokSzama = 8;

szinNev = ["Black", "Yellow", "Red", "Blue"];
orszagNev = ["Belgium", "Denmark", "France", "Germany", "Netherlands", "Luxembourg", "Switzerland", "Hungary"];

szomszedos = [| 0, 0, 1, 1, 1, 1, 0,  0,
               | 0, 0, 0, 1, 0, 0, 0, 0,
               | 1, 0, 0, 1, 0, 1, 1, 0,
               | 1, 1, 1, 0, 0, 0, 1, 0,
               | 1, 0, 0, 0, 0, 0, 0, 0,
               | 1, 0, 1, 0, 0, 0, 0, 0,
               | 0, 0, 1, 1, 0, 0, 0, 0,
               | 0, 0, 0, 0, 0, 0, 0, 0
               |];